************************************************************************
file with basedata            : md336_.bas
initial value random generator: 388000824
************************************************************************
projects                      :  1
jobs (incl. supersource/sink ):  22
horizon                       :  162
RESOURCES
  - renewable                 :  2   R
  - nonrenewable              :  2   N
  - doubly constrained        :  0   D
************************************************************************
PROJECT INFORMATION:
pronr.  #jobs rel.date duedate tardcost  MPM-Time
    1     20      0       38       12       38
************************************************************************
PRECEDENCE RELATIONS:
jobnr.    #modes  #successors   successors
   1        1          3           2   3   4
   2        3          3           5   6  11
   3        3          3           5  16  20
   4        3          1          16
   5        3          3           9  10  17
   6        3          3           7  12  16
   7        3          2           8  13
   8        3          3           9  14  17
   9        3          1          15
  10        3          2          12  13
  11        3          3          13  18  20
  12        3          2          18  21
  13        3          1          19
  14        3          2          20  21
  15        3          2          19  21
  16        3          1          17
  17        3          1          18
  18        3          1          19
  19        3          1          22
  20        3          1          22
  21        3          1          22
  22        1          0        
************************************************************************
REQUESTS/DURATIONS:
jobnr. mode duration  R 1  R 2  N 1  N 2
------------------------------------------------------------------------
  1      1     0       0    0    0    0
  2      1     3       8    9    5    0
         2     6       6    7    0    9
         3     9       5    6    0    6
  3      1     1       3    8    9    0
         2     4       1    3    0    9
         3     4       2    5    7    0
  4      1     1       6    6    0    9
         2     5       5    4    2    0
         3     6       3    4    0    5
  5      1     1       8    2    0    2
         2     3       8    2    0    1
         3     3       8    1    2    0
  6      1     7       9    7    8    0
         2     8       7    7    8    0
         3     9       6    6    0    6
  7      1     3       7   10    0    1
         2     3       7   10    7    0
         3     5       5    9    4    0
  8      1     5       4    3    7    0
         2     5       4    3    0    3
         3     9       2    2    7    0
  9      1     3       9    9    6    0
         2     7       8    7    5    0
         3     9       8    5    4    0
 10      1     2       6    6    0    5
         2     3       5    4    6    0
         3     7       5    3    0    5
 11      1     5       3   10    4    0
         2     8       2    7    0    4
         3     9       1    3    4    0
 12      1     9       5    7    0    5
         2     9       5    8    5    0
         3    10       2    6    0    5
 13      1     2       6   10    0    8
         2     5       5    6    0    5
         3     6       5    3    5    0
 14      1     5       3    8    0    2
         2     9       3    7    3    0
         3    10       1    6    3    0
 15      1     3       3    8    0    4
         2     9       2    8    0    3
         3    10       2    7    0    3
 16      1     1      10    9    0    8
         2     5       4    5    4    0
         3     9       2    2    4    0
 17      1    10       6    6    6    0
         2    10       8    2    0    7
         3    10       7    7    0    6
 18      1     5       6    7    4    0
         2     9       6    6    0    9
         3    10       6    6    0    8
 19      1     5       8    3    6    0
         2     8       7    3    0    9
         3    10       4    2    0    8
 20      1     1      10    8    8    0
         2     7       9    5    0    7
         3     8       9    3    0    5
 21      1     2      10   10    2    0
         2     6       7    7    1    0
         3     9       5    5    0    6
 22      1     0       0    0    0    0
************************************************************************
RESOURCEAVAILABILITIES:
  R 1  R 2  N 1  N 2
   25   32   52   58
************************************************************************
MAXIMAL LAGS:
from  to  type  delay
    1   22   ES      0
    1    2   ES      0
    2   22   ES      0
    1    3   ES      0
    3   22   ES      0
    1    4   ES      0
    4   22   ES      0
    1    5   ES      0
    5   22   ES      0
    1    6   ES      0
    6   22   ES      0
    1    7   ES      0
    7   22   ES      0
    1    8   ES      0
    8   22   ES      0
    1    9   ES      0
    9   22   ES      0
    1   10   ES      0
   10   22   ES      0
    1   11   ES      0
   11   22   ES      0
    1   12   ES      0
   12   22   ES      0
    1   13   ES      0
   13   22   ES      0
    1   14   ES      0
   14   22   ES      0
    1   15   ES      0
   15   22   ES      0
    1   16   ES      0
   16   22   ES      0
    1   17   ES      0
   17   22   ES      0
    1   18   ES      0
   18   22   ES      0
    1   19   ES      0
   19   22   ES      0
    1   20   ES      0
   20   22   ES      0
    1   21   ES      0
   21   22   ES      0
    1   22   ES      0
    2    5   SS     10
    2    5   SE      0
    5    2   SE      0
    2    5   ES      0
    2    5   EE      0
    2    6   SS      1
    2    6   SE      5
    2    6   ES     -6
    2    6   EE      9
    2   11   SS     -7
    2   11   SE      3
    2   11   ES     -8
    2   11   EE     -6
    3    5   SS      5
    3    5   SE      0
    3    5   ES     -1
    3    5   EE      1
    3   16   SS     -8
    3   16   SE     -3
    3   16   ES      9
    3   16   EE     -8
    3   20   SS     -8
    3   20   SE    -12
    3   20   ES    -10
    3   20   EE      8
    4   16   SS    -12
    4   16   SE     -8
    4   16   ES     11
    4   16   EE      3
    5    9   SS      9
    5    9   SE      1
    5    9   ES     -8
    5    9   EE    -10
    5   10   SS     -8
    5   10   SE      8
    5   10   ES      1
    5   10   EE      2
    5   17   SS     10
    5   17   SE      7
    5   17   ES      1
    5   17   EE      7
    6    7   SS     -7
    6    7   SE      2
    6    7   ES      4
    6    7   EE      1
    6   12   SS      5
    6   12   SE      2
    6   12   ES      0
    6   12   EE     -1
    6   16   SS     -5
    6   16   SE     -7
    6   16   ES      1
    6   16   EE      7
    7    8   SS    -12
    7    8   SE      6
    7    8   ES      3
    7    8   EE     11
    7   13   SS     -5
    7   13   SE     10
    7   13   ES      4
    7   13   EE     -4
    8    9   SS      1
    8    9   SE      5
    8    9   ES      6
    8    9   EE     -1
    8   14   SS    -11
    8   14   SE    -11
    8   14   ES      6
    8   14   EE      3
    8   17   SS     10
    8   17   SE     -1
    8   17   ES     -9
    8   17   EE      6
    9   15   SS      3
    9   15   SE     10
    9   15   ES    -10
    9   15   EE     -8
   10   12   SS     11
   10   12   SE     11
   10   12   ES      4
   10   12   EE     12
   10   13   SS     12
   10   13   SE     -4
   10   13   ES      2
   10   13   EE      4
   11   13   SS    -10
   11   13   SE      4
   11   13   ES      7
   11   13   EE    -10
   11   18   SS     -5
   11   18   SE      3
   11   18   ES      8
   11   18   EE     11
   11   20   SS      9
   11   20   SE      9
   11   20   ES    -10
   11   20   EE      9
   12   18   SS      8
   12   18   SE      5
   12   18   ES      6
   12   18   EE     -3
   12   21   SS      7
   12   21   SE    -11
   12   21   ES     -2
   12   21   EE      5
   13   19   SS     12
   13   19   SE    -12
   13   19   ES      3
   13   19   EE      2
   14   20   SS      4
   14   20   SE      3
   14   20   ES      6
   14   20   EE     11
   14   21   SS     -2
   14   21   SE      1
   14   21   ES     -1
   14   21   EE     -3
   15   19   SS     -3
   15   19   SE     -7
   15   19   ES    -11
   15   19   EE     10
   15   21   SS      7
   15   21   SE     11
   15   21   ES     -3
   15   21   EE     11
   16   17   SS      6
   16   17   SE     -4
   16   17   ES    -11
   16   17   EE      8
   17   18   SS      3
   17   18   SE      6
   17   18   ES     -7
   17   18   EE      6
   18   19   SS    -11
   18   19   SE      9
   18   19   ES     -3
   18   19   EE     11
************************************************************************
